53
23
0 23 27 28 29 30 33 36 37 38 39 41 42 43 46 47 49 50 52
1 23 24 25 27 30 31 33 36 37 39 40 42 45 46 47 50
2 23 27 28 30 31 33 34 35 36 37 38 39 41 42 44 45 46 47 48 52
3 23 24 27 28 30 31 34 36 37 39 41 42 46 47 48 50
4 27 28 29 30 31 32 33 36 37 38 39 40 41 42 44 46 47 48 50 52
5 23 27 28 30 31 34 37 39 42 44 46 47 48 49 50 52
6 23 27 28 36 37 38 39 42 46 47 48 49 50
7 23 27 28 29 30 31 36 37 38 39 40 44 45 47 49 50 52
8 27 28 29 30 31 33 34 36 39 42 50
9 23 24 28 29 31 33 36 37 39 45 46 50
10 23 24 25 27 29 30 31 34 39 41 43 44 45 48 50
11 25 27 30 31 34 36 38 41 45 46 48 52
12 24 25 27 31 34 39 42 45 46 50 52
13 23 24 33 34 37 41 43 45 47 50 52
14 24 28 29 30 33 42 46
15 25 34 36 37 38 39 40 50
16 23 26 28 29 30 34 36 37 40 51 52
17 24 25 30 35 39 51
18 24 33 40 46 47 48
19
20 32 41 44 46
21 23 33 49
22 50
